60
1 0 1
3 0 1
3 1 1
4 0 1
4 1 1
5 1 1
5 2 1
5 4 1
6 0 1
6 2 1
6 3 1
7 2 1
7 3 1
7 4 1
8 0 1
8 1 1
8 2 1
8 4 1
8 6 1
9 0 1
9 1 1
9 2 1
9 3 1
9 4 1
9 6 1
9 7 1
9 8 1
10 1 1
10 3 1
10 4 1
10 8 1
11 1 1
11 2 1
11 5 1
11 6 1
11 10 1
12 4 1
12 5 1
13 0 1
13 3 1
13 7 1
13 8 1
14 1 1
14 4 1
14 11 1
14 12 1
15 3 1
15 8 1
15 10 1
15 12 1
15 14 1
16 1 1
16 2 1
16 6 1
16 7 1
16 10 1
16 12 1
16 14 1
17 1 1
17 2 1
17 4 1
17 8 1
17 11 1
17 14 1
17 15 1
18 1 1
18 2 1
18 5 1
18 6 1
18 7 1
18 10 1
18 11 1
18 12 1
18 16 1
18 17 1
19 0 1
19 2 1
19 4 1
19 6 1
19 7 1
19 10 1
19 11 1
19 16 1
19 18 1
20 0 1
20 1 1
20 2 1
20 3 1
20 6 1
20 9 1
20 10 1
20 13 1
20 15 1
20 16 1
20 17 1
20 18 1
20 19 1
21 1 1
21 2 1
21 3 1
21 9 1
21 12 1
21 13 1
21 14 1
21 15 1
21 16 1
21 20 1
22 0 1
22 4 1
22 5 1
22 6 1
22 7 1
22 9 1
22 15 1
22 17 1
22 18 1
22 20 1
22 21 1
23 0 1
23 1 1
23 3 1
23 11 1
23 12 1
23 13 1
23 16 1
23 18 1
23 19 1
23 20 1
24 0 1
24 1 1
24 3 1
24 4 1
24 10 1
24 12 1
24 14 1
24 17 1
24 20 1
24 22 1
24 23 1
25 1 1
25 3 1
25 6 1
25 8 1
25 12 1
25 13 1
25 14 1
25 15 1
25 17 1
25 18 1
25 20 1
25 22 1
25 23 1
26 3 1
26 4 1
26 8 1
26 9 1
26 10 1
26 11 1
26 12 1
26 13 1
26 14 1
26 15 1
26 16 1
26 18 1
26 19 1
26 21 1
26 24 1
27 4 1
27 5 1
27 6 1
27 10 1
27 12 1
27 13 1
27 15 1
27 20 1
27 23 1
27 25 1
28 0 1
28 1 1
28 4 1
28 5 1
28 8 1
28 14 1
28 18 1
28 20 1
28 22 1
28 23 1
28 25 1
29 1 1
29 5 1
29 6 1
29 7 1
29 11 1
29 13 1
29 14 1
29 16 1
29 18 1
29 20 1
29 21 1
29 22 1
29 26 1
29 28 1
30 0 1
30 1 1
30 2 1
30 7 1
30 8 1
30 9 1
30 11 1
30 12 1
30 13 1
30 14 1
30 15 1
30 20 1
30 22 1
30 24 1
30 25 1
30 26 1
30 28 1
31 0 1
31 1 1
31 2 1
31 3 1
31 4 1
31 6 1
31 7 1
31 8 1
31 13 1
31 14 1
31 15 1
31 17 1
31 18 1
31 22 1
31 23 1
31 24 1
31 25 1
31 26 1
31 27 1
31 28 1
32 1 1
32 2 1
32 5 1
32 10 1
32 12 1
32 13 1
32 17 1
32 21 1
32 22 1
32 23 1
32 26 1
32 27 1
32 28 1
32 29 1
33 1 1
33 4 1
33 7 1
33 8 1
33 9 1
33 10 1
33 13 1
33 14 1
33 17 1
33 18 1
33 19 1
33 22 1
33 25 1
33 26 1
33 27 1
33 30 1
33 31 1
34 0 1
34 1 1
34 2 1
34 4 1
34 5 1
34 6 1
34 7 1
34 8 1
34 10 1
34 11 1
34 12 1
34 14 1
34 15 1
34 17 1
34 18 1
34 21 1
34 23 1
34 25 1
34 26 1
34 27 1
35 0 1
35 5 1
35 6 1
35 9 1
35 11 1
35 14 1
35 15 1
35 17 1
35 19 1
35 23 1
35 25 1
35 26 1
35 27 1
35 29 1
35 30 1
35 31 1
35 32 1
35 33 1
35 34 1
36 0 1
36 1 1
36 4 1
36 5 1
36 14 1
36 15 1
36 16 1
36 17 1
36 29 1
36 33 1
36 34 1
37 2 1
37 3 1
37 9 1
37 11 1
37 12 1
37 17 1
37 19 1
37 20 1
37 23 1
37 24 1
37 25 1
37 26 1
37 27 1
37 28 1
37 29 1
37 30 1
37 32 1
37 33 1
37 34 1
37 35 1
38 4 1
38 6 1
38 7 1
38 8 1
38 9 1
38 14 1
38 15 1
38 16 1
38 18 1
38 20 1
38 26 1
38 28 1
38 29 1
38 30 1
38 34 1
38 36 1
38 37 1
39 2 1
39 4 1
39 5 1
39 6 1
39 7 1
39 10 1
39 13 1
39 14 1
39 17 1
39 18 1
39 20 1
39 21 1
39 22 1
39 24 1
39 25 1
39 28 1
39 29 1
39 30 1
39 31 1
39 34 1
39 36 1
39 37 1
39 38 1
40 0 1
40 2 1
40 3 1
40 5 1
40 6 1
40 7 1
40 9 1
40 11 1
40 15 1
40 16 1
40 21 1
40 22 1
40 23 1
40 25 1
40 26 1
40 28 1
40 29 1
40 32 1
40 33 1
40 34 1
40 36 1
40 37 1
40 38 1
41 0 1
41 1 1
41 2 1
41 5 1
41 6 1
41 7 1
41 8 1
41 9 1
41 10 1
41 13 1
41 15 1
41 16 1
41 22 1
41 25 1
41 27 1
41 28 1
41 34 1
41 35 1
41 37 1
42 1 1
42 5 1
42 10 1
42 12 1
42 14 1
42 17 1
42 18 1
42 23 1
42 24 1
42 26 1
42 27 1
42 28 1
42 32 1
42 36 1
42 39 1
42 40 1
42 41 1
43 0 1
43 2 1
43 3 1
43 4 1
43 5 1
43 6 1
43 10 1
43 12 1
43 13 1
43 14 1
43 15 1
43 17 1
43 24 1
43 26 1
43 29 1
43 32 1
43 33 1
43 38 1
43 42 1
44 0 1
44 2 1
44 4 1
44 5 1
44 6 1
44 9 1
44 10 1
44 12 1
44 14 1
44 15 1
44 16 1
44 17 1
44 20 1
44 22 1
44 23 1
44 24 1
44 25 1
44 27 1
44 30 1
44 31 1
44 34 1
44 35 1
44 36 1
44 41 1
44 43 1
45 0 1
45 1 1
45 2 1
45 6 1
45 7 1
45 8 1
45 11 1
45 12 1
45 14 1
45 16 1
45 18 1
45 20 1
45 23 1
45 26 1
45 27 1
45 29 1
45 31 1
45 35 1
45 37 1
45 40 1
45 41 1
45 42 1
45 43 1
46 1 1
46 5 1
46 6 1
46 8 1
46 13 1
46 15 1
46 16 1
46 18 1
46 20 1
46 31 1
46 34 1
46 36 1
46 38 1
46 39 1
46 41 1
46 43 1
46 45 1
47 0 1
47 1 1
47 4 1
47 5 1
47 7 1
47 10 1
47 13 1
47 15 1
47 16 1
47 17 1
47 19 1
47 21 1
47 24 1
47 25 1
47 26 1
47 35 1
47 36 1
47 37 1
47 38 1
47 40 1
47 41 1
47 43 1
47 44 1
48 1 1
48 3 1
48 10 1
48 14 1
48 15 1
48 16 1
48 18 1
48 19 1
48 23 1
48 24 1
48 26 1
48 27 1
48 28 1
48 30 1
48 31 1
48 35 1
48 38 1
48 40 1
48 41 1
48 44 1
48 45 1
48 46 1
49 1 1
49 5 1
49 7 1
49 9 1
49 10 1
49 12 1
49 13 1
49 16 1
49 17 1
49 18 1
49 19 1
49 21 1
49 24 1
49 25 1
49 27 1
49 28 1
49 29 1
49 30 1
49 35 1
49 37 1
49 38 1
49 40 1
49 41 1
49 45 1
49 46 1
49 47 1
50 0 1
50 5 1
50 9 1
50 11 1
50 12 1
50 17 1
50 19 1
50 23 1
50 27 1
50 29 1
50 32 1
50 33 1
50 37 1
50 42 1
50 43 1
50 44 1
50 46 1
50 49 1
51 5 1
51 6 1
51 8 1
51 9 1
51 13 1
51 15 1
51 18 1
51 19 1
51 20 1
51 23 1
51 25 1
51 26 1
51 30 1
51 31 1
51 33 1
51 36 1
51 38 1
51 39 1
51 40 1
51 41 1
51 42 1
51 50 1
52 0 1
52 1 1
52 2 1
52 3 1
52 4 1
52 5 1
52 6 1
52 9 1
52 12 1
52 13 1
52 17 1
52 19 1
52 22 1
52 25 1
52 28 1
52 32 1
52 35 1
52 36 1
52 39 1
52 40 1
52 41 1
52 42 1
52 46 1
52 47 1
52 49 1
52 50 1
52 51 1
53 0 1
53 1 1
53 2 1
53 3 1
53 4 1
53 5 1
53 6 1
53 9 1
53 10 1
53 11 1
53 13 1
53 14 1
53 15 1
53 16 1
53 18 1
53 24 1
53 25 1
53 26 1
53 27 1
53 28 1
53 29 1
53 32 1
53 36 1
53 37 1
53 39 1
53 40 1
53 41 1
53 43 1
53 49 1
53 51 1
54 4 1
54 5 1
54 6 1
54 13 1
54 15 1
54 16 1
54 18 1
54 19 1
54 22 1
54 23 1
54 24 1
54 25 1
54 26 1
54 27 1
54 31 1
54 35 1
54 37 1
54 39 1
54 40 1
54 42 1
54 43 1
54 46 1
54 47 1
54 52 1
55 0 1
55 2 1
55 3 1
55 7 1
55 8 1
55 9 1
55 11 1
55 12 1
55 13 1
55 18 1
55 25 1
55 29 1
55 31 1
55 32 1
55 33 1
55 34 1
55 35 1
55 36 1
55 37 1
55 41 1
55 42 1
55 44 1
55 45 1
55 46 1
55 49 1
55 51 1
55 54 1
56 3 1
56 6 1
56 7 1
56 9 1
56 12 1
56 13 1
56 14 1
56 15 1
56 16 1
56 17 1
56 18 1
56 19 1
56 20 1
56 23 1
56 26 1
56 27 1
56 30 1
56 34 1
56 40 1
56 41 1
56 43 1
56 46 1
56 48 1
56 49 1
56 51 1
56 53 1
56 54 1
56 55 1
57 0 1
57 1 1
57 3 1
57 4 1
57 8 1
57 9 1
57 11 1
57 12 1
57 13 1
57 15 1
57 16 1
57 19 1
57 20 1
57 22 1
57 23 1
57 26 1
57 27 1
57 28 1
57 30 1
57 31 1
57 33 1
57 35 1
57 37 1
57 38 1
57 40 1
57 41 1
57 45 1
57 46 1
57 50 1
57 52 1
57 53 1
57 55 1
57 56 1
58 2 1
58 7 1
58 8 1
58 9 1
58 12 1
58 15 1
58 16 1
58 17 1
58 18 1
58 19 1
58 21 1
58 22 1
58 26 1
58 28 1
58 29 1
58 30 1
58 35 1
58 36 1
58 37 1
58 39 1
58 41 1
58 42 1
58 45 1
58 48 1
58 50 1
58 53 1
58 55 1
58 56 1
58 57 1
59 0 1
59 1 1
59 3 1
59 5 1
59 8 1
59 10 1
59 12 1
59 14 1
59 15 1
59 17 1
59 21 1
59 24 1
59 27 1
59 29 1
59 36 1
59 37 1
59 39 1
59 45 1
59 47 1
59 50 1
59 54 1
59 56 1
